
Gurobi 7.0.2 (win64) logging started 06/27/20 10:18:50

Read LP format model from file C:\George\Professor\Pesquisa\Orientacoes em Pos-graduacao\2019 MSC PPGCC Guilherme Figueroa\Fanjuls Solver\Results\I_100_25_S_1-124_8_MTZ_KB.lp
Reading time = 1.18 seconds
: 15250 rows, 255101 columns, 1035025 nonzeros
Optimize a model with 15250 rows, 255101 columns and 1035025 nonzeros
Variable types: 2601 continuous, 252500 integer (252500 binary)
Coefficient statistics:
  Matrix range     [1e+00, 1e+02]
  Objective range  [1e+00, 1e+00]
  Bounds range     [1e+00, 1e+00]
  RHS range        [1e+00, 1e+02]
Presolve time: 2.00s
Presolved: 15250 rows, 255101 columns, 1035025 nonzeros
Variable types: 100 continuous, 255001 integer (255000 binary)
Found heuristic solution: objective 11563.000000
Found heuristic solution: objective 11492.000000

Root simplex log...

Iteration    Objective       Primal Inf.    Dual Inf.      Time
    2816    4.7097450e-05   9.747571e+02   0.000000e+00      5s
    8979    3.5771054e-04   2.525045e+03   0.000000e+00     10s
   16645    4.1334936e+00   1.655023e+03   0.000000e+00     15s
   22113    2.8573783e+01   4.623648e+02   0.000000e+00     20s
   25501    3.7801881e+01   1.332825e+03   0.000000e+00     25s
   26964    3.9593644e+01   1.354101e+03   0.000000e+00     30s
   27965    3.9813632e+01   2.641013e-01   0.000000e+00     36s
   28090    3.9814547e+01   0.000000e+00   0.000000e+00     36s

Root relaxation: objective 3.981455e+01, 28090 iterations, 31.90 seconds

    Nodes    |    Current Node    |     Objective Bounds      |     Work
 Expl Unexpl |  Obj  Depth IntInf | Incumbent    BestBd   Gap | It/Node Time

     0     0   39.81455    0  561 11492.0000   39.81455   100%     -   36s
H    0     0                     275.0000000   39.81455  85.5%     -   73s
H    0     0                      88.0000000   39.81455  54.8%     -  110s
     0     0   40.06674    0  591   88.00000   40.06674  54.5%     -  130s
     0     0   40.06674    0  561   88.00000   40.06674  54.5%     -  177s
     0     0   40.06674    0  591   88.00000   40.06674  54.5%     -  186s
     0     0   40.06674    0  591   88.00000   40.06674  54.5%     -  187s
     0     0   41.00000    0  647   88.00000   41.00000  53.4%     -  207s
     0     0   41.00000    0  636   88.00000   41.00000  53.4%     -  208s
     0     0   41.00000    0  642   88.00000   41.00000  53.4%     -  215s
     0     0   41.00000    0  633   88.00000   41.00000  53.4%     -  216s
     0     0   41.00000    0  637   88.00000   41.00000  53.4%     -  223s
     0     0   41.00000    0  694   88.00000   41.00000  53.4%     -  223s
     0     0   41.00000    0  650   88.00000   41.00000  53.4%     -  228s
     0     0   41.00000    0  658   88.00000   41.00000  53.4%     -  228s
     0     0   41.00000    0  530   88.00000   41.00000  53.4%     -  248s
     0     0   41.00000    0  601   88.00000   41.00000  53.4%     -  252s
     0     0   41.00000    0  524   88.00000   41.00000  53.4%     -  264s
     0     0   41.00000    0  584   88.00000   41.00000  53.4%     -  266s
     0     0   41.00000    0  611   88.00000   41.00000  53.4%     -  276s
     0     0   41.00000    0  622   88.00000   41.00000  53.4%     -  279s
     0     0   41.00000    0  552   88.00000   41.00000  53.4%     -  292s
     0     0   41.00000    0  552   88.00000   41.00000  53.4%     -  376s
     0     2   41.00000    0  552   88.00000   41.00000  53.4%     -  396s
     1     4   41.00000    1  631   88.00000   41.00000  53.4%  3315  415s
     2     4   41.58466    1  602   88.00000   41.00000  53.4%  3095  436s
     3     4   41.00000    2  634   88.00000   41.00000  53.4%  2534  444s
     4     4   41.04074    2  644   88.00000   41.00000  53.4%  2469  457s
     5     5   41.00000    3  646   88.00000   41.00000  53.4%  2187  462s
     6     6   41.00000    4  668   88.00000   41.00000  53.4%  1858  465s
     8     6   41.61121    5  649   88.00000   41.00000  53.4%  1677  473s
     9     7   42.00000    6  628   88.00000   41.00000  53.4%  2228  492s
    10     8   42.00000    7  625   88.00000   41.00000  53.4%  2012  496s
    12    10   42.00000    9  618   88.00000   41.00000  53.4%  1759  505s
    14    12   42.00000   11  647   88.00000   41.00000  53.4%  1549  511s
    15    13   42.00000   11  580   88.00000   41.00000  53.4%  1565  516s
    16    14   42.00000   12  608   88.00000   41.00000  53.4%  1497  535s
    19    17   42.00000   15  597   88.00000   41.00000  53.4%  1300  540s
    21    19   42.00000   17  604   88.00000   41.00000  53.4%  1202  545s
    22    20   42.00000   17  640   88.00000   41.00000  53.4%  1249  550s
    25    23   49.00000   20  631   88.00000   41.00000  53.4%  1213  579s
    26    23   42.18413   20  590   88.00000   41.00000  53.4%  1214  582s
    27    24   43.00000   21  606   88.00000   41.00000  53.4%  1310  591s
    28    25   43.00000   22  623   88.00000   41.00000  53.4%  1273  595s
    31    28   43.00000   25  655   88.00000   41.00000  53.4%  1168  601s
    35    32   43.00000   29  643   88.00000   41.00000  53.4%  1054  606s
    38    35   43.00000   32  680   88.00000   41.00000  53.4%   982  612s
    39    36   43.00000   33  626   88.00000   41.00000  53.4%   979  616s
    40    36   43.21967   33  561   88.00000   41.00000  53.4%  1015  622s
    42    38   43.00000   34  659   88.00000   41.00000  53.4%  1004  626s
    44    39   43.94878   35  634   88.00000   41.00000  53.4%  1045  634s
    46    41   43.00000   37  673   88.00000   41.00000  53.4%  1004  635s
    51    46   43.00000   42  675   88.00000   41.00000  53.4%   914  640s
    56    51   43.00000   47  677   88.00000   41.00000  53.4%   848  645s
    65    60   43.00000   56  681   88.00000   41.00000  53.4%   745  650s
    71    65   43.20024   62  552   88.00000   41.00000  53.4%   716  657s
    74    68   43.00000   63  635   88.00000   41.00000  53.4%   708  660s
    79    72   43.00601   68  581   88.00000   41.00000  53.4%   697  665s
    80    73   70.00000   68  626   88.00000   41.00000  53.4%   695  682s
    81    74   44.00000   69  601   88.00000   41.00000  53.4%   744  694s
    82    75   44.00000   70  645   88.00000   41.00000  53.4%   737  696s
    85    78   44.00000   73  661   88.00000   41.00000  53.4%   716  702s
    86    79   44.00000   74  647   88.00000   41.00000  53.4%   711  705s
    89    82   44.00000   77  645   88.00000   41.00000  53.4%   694  710s
    94    87   44.00000   82  638   88.00000   41.00000  53.4%   669  715s
    99    92   44.00000   87  664   88.00000   41.00000  53.4%   640  720s
   106    99   44.00000   94  636   88.00000   41.00000  53.4%   606  726s
   111   104   44.00000   99  605   88.00000   41.00000  53.4%   585  730s
   116   109   44.00000  104  605   88.00000   41.00000  53.4%   568  735s
   118   111   44.00000  106  621   88.00000   41.00000  53.4%   568  740s
   122   114   44.70272  109  558   88.00000   41.00000  53.4%   578  748s
   124   116   44.00000  111  598   88.00000   41.00000  53.4%   576  750s
   129   120   44.24474  115  522   88.00000   41.00000  53.4%   573  756s
   134   124   44.58509  119  507   88.00000   41.00000  53.4%   581  763s
   135   125   44.00000  120  605   88.00000   41.00000  53.4%   584  765s
   140   129   44.93851  124  536   88.00000   41.00000  53.4%   587  772s
   145   133   44.05743  129  562   88.00000   41.00000  53.4%   578  775s
   150   136   83.00000  131  549   88.00000   41.00000  53.4%   577  788s
   151   137   45.00000  132  543   88.00000   41.00000  53.4%   610  797s
   153   139   45.00000  134  628   88.00000   41.00000  53.4%   604  800s
   156   142   45.00000  137  628   88.00000   41.00000  53.4%   600  806s
   160   146   45.00000  141  641   88.00000   41.00000  53.4%   588  810s
   164   150   45.00000  144  577   88.00000   41.00000  53.4%   587  816s
   168   154   45.00000  148  592   88.00000   41.00000  53.4%   578  820s
   174   160   45.00000  154  623   88.00000   41.00000  53.4%   561  826s
   178   164   45.00000  158  635   88.00000   41.00000  53.4%   552  830s
   186   172   45.00000  166  636   88.00000   41.00000  53.4%   533  836s
H  188   172                      84.0000000   41.00000  51.2%   528  855s
H  188   168                      73.0000000   41.00000  43.8%   528  862s
   188   169   45.79358  167  529   73.00000   41.00000  43.8%   543  876s
   192   172   45.00000  171  619   73.00000   41.00000  43.8%   537  880s
   198   177   45.00000  177  635   73.00000   41.00000  43.8%   525  885s
   205   184   45.00000  184  614   73.00000   41.00000  43.8%   516  890s
   213   192   45.00000  192  630   73.00000   41.00000  43.8%   505  895s
   221   199   45.00000  200  565   73.00000   41.00000  43.8%   494  900s
   230   208   48.00000  209  577   73.00000   41.00000  43.8%   501  915s
   233   210   46.00000  211  590   73.00000   41.00000  43.8%   506  921s
   236   213   46.00000  214  592   73.00000   41.00000  43.8%   507  925s
   245   222   46.00000  223  560   73.00000   41.00000  43.8%   498  930s
   248   223   47.00000  225  573   73.00000   41.00000  43.8%   507  937s
   249   224   47.00000  226  609   73.00000   41.00000  43.8%   506  940s
   252   227   47.00000  229  605   73.00000   41.00000  43.8%   502  946s
   255   229   47.00000  232  638   73.00000   41.00000  43.8%   498  951s
   257   231   47.00000  234  603   73.00000   41.00000  43.8%   496  955s
   260   234   47.00000  237  569   73.00000   41.00000  43.8%   493  961s
   263   236   47.00000  240  616   73.00000   41.00000  43.8%   489  965s
   269   240   47.00000  246  636   73.00000   41.00000  43.8%   481  971s
   273   244   47.00000  250  595   73.00000   41.00000  43.8%   476  975s
   278   249   47.00000  255  606   73.00000   41.00000  43.8%   469  980s
   284   255   47.00000  261  634   73.00000   41.00000  43.8%   461  986s
   290   257   47.00000  267  613   73.00000   41.00000  43.8%   454  991s
   294   260   47.00000  271  605   73.00000   41.00000  43.8%   448  995s
   301   267   47.00000  278  592   73.00000   41.00000  43.8%   441 1000s
   306   272   47.00000  283  595   73.00000   41.00000  43.8%   437 1005s
   313   278   47.00000  290  595   73.00000   41.00000  43.8%   432 1011s
   321   282   47.00000  298  570   73.00000   41.00000  43.8%   423 1015s
   326   286   47.00000  303  560   73.00000   41.00000  43.8%   420 1020s
   336   296   47.00000  313  584   73.00000   41.00000  43.8%   411 1025s
   345   305   47.00000  322  625   73.00000   41.00000  43.8%   404 1030s
   354   313   47.08352  331  474   73.00000   41.00000  43.8%   401 1036s
   359   318   47.00000  335  551   73.00000   41.00000  43.8%   400 1040s
   366   325   47.00000  342  582   73.00000   41.00000  43.8%   396 1045s
   376   335   47.00000  352  591   73.00000   41.00000  43.8%   390 1050s
   391   350   47.00000  367  591   73.00000   41.00000  43.8%   380 1055s
   404   363   47.00000  380  569   73.00000   41.00000  43.8%   372 1060s
   417   375   47.16874  393  498   73.00000   41.00000  43.8%   367 1065s
   425   382   47.00000  399  557   73.00000   41.00000  43.8%   366 1070s
   434   389   49.26037  407  478   73.00000   41.00000  43.8%   366 1075s
   435   390   48.00000  408  591   73.00000   41.00000  43.8%   373 1081s
   439   394   48.00000  412  583   73.00000   41.00000  43.8%   373 1085s
   444   397   56.00000  416  579   73.00000   41.00000  43.8%   378 1099s
   445   398   49.00000  417  536   73.00000   41.00000  43.8%   383 1105s
   449   402   49.00000  421  599   73.00000   41.00000  43.8%   381 1110s
   454   407   49.00000  426  570   73.00000   41.00000  43.8%   379 1115s
   458   411   49.00000  430  552   73.00000   41.00000  43.8%   378 1120s
   462   414   49.00000  434  576   73.00000   41.00000  43.8%   377 1125s
   471   421   49.00000  443  600   73.00000   41.00000  43.8%   371 1130s
   475   425   49.00000  447  644   73.00000   41.00000  43.8%   369 1135s
   487   437   49.00000  459  589   73.00000   41.00000  43.8%   365 1140s
   496   446   49.00000  468  565   73.00000   41.00000  43.8%   363 1145s
   503   451   53.00000  474  568   73.00000   41.00000  43.8%   363 1151s
   505   453   50.00000  476  544   73.00000   41.00000  43.8%   365 1155s
   510   457   50.00000  481  577   73.00000   41.00000  43.8%   365 1160s
   515   461   50.00000  486  607   73.00000   41.00000  43.8%   363 1165s
   522   468   50.00000  493  615   73.00000   41.00000  43.8%   360 1170s
   530   476   50.00000  501  581   73.00000   41.00000  43.8%   358 1175s
   536   479   51.00000  506  565   73.00000   41.00000  43.8%   364 1184s
   537   479   51.00000  507  584   73.00000   41.00000  43.8%   364 1185s
   541   483   51.00000  511  576   73.00000   41.00000  43.8%   363 1190s
   547   489   51.00000  517  568   73.00000   41.00000  43.8%   361 1195s
   555   496   51.00000  525  569   73.00000   41.00000  43.8%   357 1200s
   565   505   51.00000  535  565   73.00000   41.00000  43.8%   353 1205s
   573   513   51.00000  543  538   73.00000   41.00000  43.8%   351 1210s
   580   517   52.00000  549  520   73.00000   41.00000  43.8%   353 1218s
   582   519   52.00000  551  573   73.00000   41.00000  43.8%   352 1220s
   587   524   52.00000  556  550   73.00000   41.00000  43.8%   350 1225s
   592   527   55.25743  561  579   73.00000   41.00000  43.8%   353 1236s
   594   527   56.02791  563  549   73.00000   41.00000  43.8%   352 1241s
   596   528   57.00000  565  551   73.00000   41.00000  43.8%   352 1246s
   598   529   57.00000  567  551   73.00000   41.00000  43.8%   351 1250s
   602   531   57.00000  571  559   73.00000   41.00000  43.8%   349 1255s
   606   534   57.00000  575  559   73.00000   41.00000  43.8%   348 1260s
   608   536   57.00000  577  587   73.00000   41.00000  43.8%   347 1266s
   610   536   57.00000  579  562   73.00000   41.00000  43.8%   347 1270s
   613   539   57.00000  582  566   73.00000   41.00000  43.8%   345 1275s
   616   541   57.00000  585  564   73.00000   41.00000  43.8%   345 1281s
   619   543   57.24561  588  548   73.00000   41.00000  43.8%   344 1285s
   627   548   58.00000  595  501   73.00000   41.00000  43.8%   340 1290s
   634   555   58.00000  602  567   73.00000   41.00000  43.8%   338 1295s
   640   555   41.79956    3  624   73.00000   41.00000  43.8%   337 1301s
   642   556   43.00000   55  591   73.00000   41.00000  43.8%   336 1331s
   644   557   45.00000  139  407   73.00000   41.00000  43.8%   335 1348s
   645   558   49.00000  450  649   73.00000   41.00000  43.8%   335 1353s
   646   559   49.00000  447  681   73.00000   41.00000  43.8%   334 1360s
   649   561   47.00000  277  693   73.00000   42.00000  42.5%   333 1372s
   650   561   50.00000  498  667   73.00000   42.00000  42.5%   332 1375s
   653   563   46.00000  213  673   73.00000   42.00000  42.5%   331 1380s
   656   565   45.00000  120  690   73.00000   42.00000  42.5%   329 1387s
   657   566   50.00000  478  478   73.00000   42.00000  42.5%   329 1406s
   658   567   47.00000  355  632   73.00000   42.00000  42.5%   328 1414s
   659   567   45.00000  187  525   73.00000   42.00000  42.5%   328 1427s
   660   568   47.00000  351  661   73.00000   42.00000  42.5%   327 1430s
   661   569   51.00000  534  609   73.00000   42.00000  42.5%   327 1445s
   663   570   45.00000  153  619   73.00000   42.00000  42.5%   326 1462s
   664   571   45.00000  139  609   73.00000   42.00000  42.5%   325 1468s
   667   574   47.00000  350  591   73.00000   42.00000  42.5%   634 1537s
   669   575   47.00000  277  422   73.00000   42.00000  42.5%   632 1558s
   670   576   50.00000  498  679   73.00000   42.00000  42.5%   631 1565s
   671   577   50.00000  499  696   73.00000   42.00000  42.5%   630 1570s
   673   578   46.00000  213  685   73.00000   42.00000  42.5%   628 1575s
   674   579   51.00000  527  531   73.00000   42.00000  42.5%   627 1592s
   675   579   43.00000   31  674   73.00000   42.00000  42.5%   626 1597s
   676   580   45.00000  120  619   73.00000   42.00000  42.5%   625 1617s
   677   581   50.00000  478  705   73.00000   42.00000  42.5%   624 1626s
   678   581   47.00000  355  631   73.00000   42.00000  42.5%   624 1649s
   679   582   45.00000  187  750   73.00000   42.00000  42.5%   623 1654s
   680   583   47.00000  351  650   73.00000   42.00000  42.5%   622 1669s
   681   583   51.00000  534  742   73.00000   42.00000  42.5%   621 1673s
   682   584   43.00000   55  565   73.00000   42.00000  42.5%   620 1690s
   683   585   45.00000  153  730   73.00000   42.00000  42.5%   619 1695s
   684   585   45.00000  139  607   73.00000   42.00000  42.5%   618 1717s
   685   586   49.00000  450  744   73.00000   42.00000  42.5%   617 1723s
   686   587   49.00000  447  665   73.00000   42.00000  42.5%   616 1738s
   687   587   47.00000  350  746   73.00000   42.00000  42.5%   615 1743s
   688   588   45.00000  200  643   73.00000   42.00000  42.5%   614 1815s
   689   589   47.00000  277  643   73.00000   42.00000  42.5%   614 1823s
   690   589   50.00000  498  643   73.00000   42.00000  42.5%   613 1842s
   691   592   42.00000   30  650   73.00000   42.00000  42.5%   896 1911s
   692   593   42.00000   30  685   73.00000   42.00000  42.5%   901 1971s
   693   593   42.00000   31  712   73.00000   42.00000  42.5%   903 2031s
   694   594   42.00000   31  685   73.00000   42.00000  42.5%   905 2044s
   695   595   42.00000   32  675   73.00000   42.00000  42.5%   906 2052s
   696   595   42.00000   32  667   73.00000   42.00000  42.5%   907 2057s
   697   596   42.00000   33  663   73.00000   42.00000  42.5%   907 2063s
   698   597   42.00000   33  666   73.00000   42.00000  42.5%   912 2075s
   699   597   42.00000   34  657   73.00000   42.00000  42.5%   918 2087s
   700   598   42.00000   34  675   73.00000   42.00000  42.5%   919 2093s
   701   599   42.00000   35  665   73.00000   42.00000  42.5%   919 2099s
   702   599   42.00000   35  682   73.00000   42.00000  42.5%   920 2104s
   703   600   42.00000   36  683   73.00000   42.00000  42.5%   921 2108s
   704   601   42.00000   36  648   73.00000   42.00000  42.5%   923 2114s
   705   600   42.03780   37  624   73.00000   42.00000  42.5%   924 2117s
   706   600   42.00258   37  661   73.00000   42.00000  42.5%   924 2121s
   707   601   43.00000   38  656   73.00000   42.00000  42.5%   939 2141s
   708   601   43.00000   39  608   73.00000   42.00000  42.5%   938 2145s
   709   602   47.00000   39  594   73.00000   42.00000  42.5%   940 2159s
   710   603   43.00000   40  610   73.00000   42.00000  42.5%   939 2162s
   711   603   48.00000   40  611   73.00000   42.00000  42.5%   939 2174s
   712   604   48.00000   41  558   73.00000   42.00000  42.5%   939 2180s
   713   605   43.00000   41  664   73.00000   42.00000  42.5%   939 2185s
   714   605   43.00000   42  648   73.00000   42.00000  42.5%   938 2192s
   715   606   44.00000   42  595   73.00000   42.00000  42.5%   939 2199s
   716   607   43.00000   43  645   73.00000   42.00000  42.5%   939 2203s
   717   607   51.00000   43  581   73.00000   42.00000  42.5%   938 2210s
   718   608   43.00000   44  614   73.00000   42.00000  42.5%   938 2215s
   720   609   43.00000   45  644   73.00000   42.00000  42.5%   937 2222s
   721   610   48.00000   45  587   73.00000   42.00000  42.5%   938 2235s
   724   612   43.00000   47  621   73.00000   42.00000  42.5%   936 2240s
   725   613   47.00000   47  610   73.00000   42.00000  42.5%   936 2248s
   726   613   43.00000   48  616   73.00000   42.00000  42.5%   936 2250s
   727   614   64.00000   48  600   73.00000   42.00000  42.5%   935 2255s
   729   615   56.00000   49  623   73.00000   42.00000  42.5%   934 2264s
   731   617   52.00000   50  652   73.00000   42.00000  42.5%   933 2272s
   733   618   50.00000   51  592   73.00000   42.00000  42.5%   932 2280s
   735   619   43.00000   52  581   73.00000   42.00000  42.5%   937 2288s
   737   621   64.00000   53  632   73.00000   42.00000  42.5%   935 2294s
   739   622   71.00000   54  583   73.00000   42.00000  42.5%   933 2297s
   741   623   43.00000   55  598   73.00000   42.00000  42.5%   933 2301s
   743   625   68.00000   56  582   73.00000   42.00000  42.5%   931 2305s
   746   627   43.00000   58  641   73.00000   42.00000  42.5%   931 2313s
   749   629   46.00000   59  592   73.00000   42.00000  42.5%   931 2364s
   750   629   43.00000   60  664   73.00000   42.00000  42.5%   930 2405s
   751   630   53.00000   60  595   73.00000   42.00000  42.5%   932 2412s
   752   631   53.00000   61  568   73.00000   42.00000  42.5%   931 2416s
   756   633   43.00000   63  593   73.00000   42.00000  42.5%   929 2420s
   758   634   43.14854   64  558   73.00000   42.00000  42.5%   930 2425s
   762   636   43.00000   66  569   73.00000   42.00000  42.5%   928 2431s
   765   637   43.42451   67  497   73.00000   42.00000  42.5%   930 2435s
   770   638   44.00000   70  525   73.00000   42.00000  42.5%   932 2443s
   772   639   44.00000   71  508   73.00000   42.00000  42.5%   932 2447s
   774   640   52.00000   72  512   73.00000   42.00000  42.5%   932 2453s
   776   642   44.00000   73  565   73.00000   42.00000  42.5%   932 2455s
   780   644   44.00000   75  506   73.00000   42.00000  42.5%   932 2460s
   786   646   45.10710   78  447   73.00000   42.00000  42.5%   931 2466s
   789   647   45.00000   80  491   73.00000   42.00000  42.5%   933 2473s
   790   648   45.00000   81  483   73.00000   42.00000  42.5%   932 2475s
   793   650   45.00000   82  472   73.00000   42.00000  42.5%   931 2480s
   797   652   52.00000   84  471   73.00000   42.00000  42.5%   930 2487s
   799   653   66.00000   85  440   73.00000   42.00000  42.5%   929 2491s
   804   653   45.97211   88  469   73.00000   42.00000  42.5%   928 2495s
   809   655   46.00000   91  467   73.00000   42.00000  42.5%   928 2500s
   813   656   46.00000   93  492   73.00000   42.00000  42.5%   928 2506s
   816   658   46.00000   94  475   73.00000   42.00000  42.5%   928 2510s
   824   664   72.00000   98  381   73.00000   42.00000  42.5%   921 2515s
   829   664   47.00000  101  501   73.00000   42.00000  42.5%   924 2521s
   833   667   47.00000  103  491   73.00000   42.00000  42.5%   922 2525s
   836   667   48.00000  105  497   73.00000   42.00000  42.5%   924 2530s
   841   670   48.00000  108  479   73.00000   42.00000  42.5%   922 2535s
   846   671   49.59345  110  435   73.00000   42.00000  42.5%   922 2540s
   849   672   49.00000  112  451   73.00000   42.00000  42.5%   923 2547s
   852   674   49.00000  114  460   73.00000   42.00000  42.5%   920 2550s
   855   675   49.00000  115  477   73.00000   42.00000  42.5%   920 2555s
   859   677   60.00000  117  447   73.00000   42.00000  42.5%   917 2561s
   863   680   51.00000  119  476   73.00000   42.00000  42.5%   918 2566s
   868   681   49.93591  122  375   73.00000   42.00000  42.5%   918 2571s
   871   683   63.00000  123  386   73.00000   42.00000  42.5%   917 2575s
   877   687   50.00000  126  448   73.00000   42.00000  42.5%   916 2581s
   884   689   49.00000  130  404   73.00000   42.00000  42.5%   913 2585s
   888   688   64.00000  132  423   73.00000   42.00000  42.5%   912 2590s
   898   690   50.00000  137  367   73.00000   42.00000  42.5%   908 2595s
   906   694   54.00000  141  419   73.00000   42.00000  42.5%   904 2600s
   913   699   50.00000  145  391   73.00000   42.00000  42.5%   900 2605s
   919   701   50.00000  148  402   73.00000   42.00000  42.5%   900 2610s
   929   706   50.07841  153  344   73.00000   42.00000  42.5%   895 2615s
   936   707   51.53940  157  346   73.00000   42.00000  42.5%   893 2620s
   946   713   72.00000  162  372   73.00000   42.00000  42.5%   890 2626s
   953   716   51.83074  165  322   73.00000   42.00000  42.5%   886 2630s
   959   719   52.30483  169  334   73.00000   42.00000  42.5%   885 2635s
   966   721   53.00000  173  400   73.00000   42.00000  42.5%   883 2640s
   976   724   54.00000  178  379   73.00000   42.00000  42.5%   882 2646s
   982   728   64.00000  181  347   73.00000   42.00000  42.5%   880 2650s
   990   728   56.24571  186  314   73.00000   42.00000  42.5%   878 2655s
  1004   737   58.00000  194  311   73.00000   42.00000  42.5%   870 2660s
  1013   739   58.49526  199  278   73.00000   42.00000  42.5%   867 2665s
  1023   740 infeasible  204        73.00000   42.00000  42.5%   863 2670s
  1032   741   62.00000  209  271   73.00000   42.00000  42.5%   859 2675s
  1049   746   62.00000  218  269   73.00000   42.00000  42.5%   849 2680s
  1067   748   66.35594  228  194   73.00000   42.00000  42.5%   839 2685s
  1087   752 infeasible  238        73.00000   42.00000  42.5%   828 2690s
  1111   751     cutoff  251        73.00000   42.00000  42.5%   815 2695s
  1124   746   42.01522   32  725   73.00000   42.00000  42.5%   810 2701s
  1125   745   42.03012   32  695   73.00000   42.00000  42.5%   812 2705s
  1126   746   43.00000   33  599   73.00000   42.00000  42.5%   814 2710s
  1128   747   43.00000   34  625   73.00000   42.00000  42.5%   814 2715s
  1129   748   43.00000   35  590   73.00000   42.00000  42.5%   814 2720s
  1132   750   43.00000   36  623   73.00000   42.00000  42.5%   814 2726s
  1135   752   43.00000   38  618   73.00000   42.00000  42.5%   815 2731s
  1138   754   58.00000   39  541   73.00000   42.00000  42.5%   814 2739s
  1139   755   43.00000   40  605   73.00000   42.00000  42.5%   814 2740s
  1142   757   48.00000   41  547   73.00000   42.00000  42.5%   815 2748s
  1144   758   43.00000   42  582   73.00000   42.00000  42.5%   815 2751s
  1146   759   60.00000   43  579   73.00000   42.00000  42.5%   815 2757s
  1148   761   43.00000   44  585   73.00000   42.00000  42.5%   816 2761s
  1150   762   44.00000   45  543   73.00000   42.00000  42.5%   821 2770s
  1153   763   43.17632   47  587   73.00000   42.00000  42.5%   821 2775s
  1155   763   44.00000   48  553   73.00000   42.00000  42.5%   824 2782s
  1159   766   48.00000   50  607   73.00000   42.00000  42.5%   823 2788s
  1160   767   44.00000   51  550   73.00000   42.00000  42.5%   823 2790s
  1163   769   44.00000   52  564   73.00000   42.00000  42.5%   823 2795s
  1166   771   44.00000   54  554   73.00000   42.00000  42.5%   822 2800s
  1170   773   44.00000   56  563   73.00000   42.00000  42.5%   822 2806s
  1172   775   44.00000   57  557   73.00000   42.00000  42.5%   822 2810s
  1177   777   44.00000   59  568   73.00000   42.00000  42.5%   821 2815s
  1180   777   45.00000   61  574   73.00000   42.00000  42.5%   826 2825s
  1183   778   45.00000   63  548   73.00000   42.00000  42.5%   827 2830s
  1188   781   45.00000   65  562   73.00000   42.00000  42.5%   826 2836s
  1192   783   45.00000   67  557   73.00000   42.00000  42.5%   827 2841s
  1195   785   45.00000   69  575   73.00000   42.00000  42.5%   826 2845s
  1198   787   67.00000   70  496   73.00000   42.00000  42.5%   826 2852s
  1200   788   45.00000   71  539   73.00000   42.00000  42.5%   826 2855s
  1202   790   45.00000   72  568   73.00000   42.00000  42.5%   826 2860s
  1206   792   45.00000   74  532   73.00000   42.00000  42.5%   826 2866s
  1208   794   48.00000   75  573   73.00000   42.00000  42.5%   826 2870s
  1213   796   45.00000   78  546   73.00000   42.00000  42.5%   826 2875s
  1218   796   45.01251   80  531   73.00000   42.00000  42.5%   826 2881s
  1219   797   46.00000   81  515   73.00000   42.00000  42.5%   829 2885s
  1223   800   69.00000   83  476   73.00000   42.00000  42.5%   827 2891s
  1229   804   46.00000   86  520   73.00000   42.00000  42.5%   826 2895s
  1234   807   46.00000   89  542   73.00000   42.00000  42.5%   826 2900s
  1238   809   46.00000   91  485   73.00000   42.00000  42.5%   826 2907s
  1241   809   46.17906   92  437   73.00000   42.00000  42.5%   826 2910s
  1248   811   46.00000   96  443   73.00000   42.00000  42.5%   826 2915s
  1254   813   47.00000   99  450   73.00000   42.00000  42.5%   826 2922s
  1258   816   61.00000  101  396   73.00000   42.00000  42.5%   824 2925s
  1266   821   57.00000  105  352   73.00000   42.00000  42.5%   821 2930s
  1274   826   67.00000  109  357   73.00000   42.00000  42.5%   818 2935s
  1280   830   61.00000  112  350   73.00000   42.00000  42.5%   816 2940s
  1288   833   47.00000  116  451   73.00000   42.00000  42.5%   813 2945s
  1293   835   47.00000  119  421   73.00000   42.00000  42.5%   812 2950s
  1300   837   47.02281  122  367   73.00000   42.00000  42.5%   811 2955s
  1303   837   48.00000  124  502   73.00000   42.00000  42.5%   812 2960s
  1309   841   48.00000  127  482   73.00000   42.00000  42.5%   811 2965s
  1317   843   48.00000  131  404   73.00000   42.00000  42.5%   809 2970s
  1322   846   49.00000  135  417   73.00000   42.00000  42.5%   809 2975s
  1328   850   49.00000  138  413   73.00000   42.00000  42.5%   808 2980s
  1334   854   52.00000  141  384   73.00000   42.00000  42.5%   807 2986s
  1338   855   49.00000  143  428   73.00000   42.00000  42.5%   807 2990s
  1346   859   50.00000  147  413   73.00000   42.00000  42.5%   805 2995s
  1352   861   50.68990  150  388   73.00000   42.00000  42.5%   804 3000s
  1360   863   50.59645  154  385   73.00000   42.00000  42.5%   803 3005s
  1365   865   51.14252  157  375   73.00000   42.00000  42.5%   803 3010s
  1369   866   53.35137  159  399   73.00000   42.00000  42.5%   804 3015s
  1372   868   54.00000  161  334   73.00000   42.00000  42.5%   804 3020s
  1378   871   71.00000  164  317   73.00000   42.00000  42.5%   804 3025s
  1385   872   53.93277  168  354   73.00000   42.00000  42.5%   804 3030s
  1396   877   63.00000  174  339   73.00000   42.00000  42.5%   800 3035s
  1403   880   57.06311  177  313   73.00000   42.00000  42.5%   798 3040s
  1415   884   56.93768  184  327   73.00000   42.00000  42.5%   795 3045s
  1426   889   54.05619  189  332   73.00000   42.00000  42.5%   791 3050s
  1437   890   58.13075  195  346   73.00000   42.00000  42.5%   788 3055s
  1444   892   70.00000  199  261   73.00000   42.00000  42.5%   787 3060s
  1452   895   60.44357  203  349   73.00000   42.00000  42.5%   785 3065s
  1463   896   59.00000  209  377   73.00000   42.00000  42.5%   783 3070s
  1472   901   59.00000  214  367   73.00000   42.00000  42.5%   780 3075s
  1482   903   72.00000  219  305   73.00000   42.00000  42.5%   778 3080s
  1497   907   64.09191  227  284   73.00000   42.00000  42.5%   774 3085s
  1508   912   67.37490  233  235   73.00000   42.00000  42.5%   771 3090s
  1520   915   68.75884  239  241   73.00000   42.00000  42.5%   768 3095s
  1527   916   64.60334  243  277   73.00000   42.00000  42.5%   766 3100s
  1541   917   71.00000  252  287   73.00000   42.00000  42.5%   762 3105s
  1554   914   72.00000  260  263   73.00000   42.00000  42.5%   757 3110s
  1562   912   42.00000   33  665   73.00000   42.00000  42.5%   755 3115s
  1564   913   42.00000   34  677   73.00000   42.00000  42.5%   755 3120s
  1566   914   42.00000   35  668   73.00000   42.00000  42.5%   756 3126s
  1568   916   42.00000   36  663   73.00000   42.00000  42.5%   756 3130s
  1570   916   42.00000   37  633   73.00000   42.00000  42.5%   757 3136s
  1572   916   42.13005   38  661   73.00000   42.00000  42.5%   757 3140s
  1574   917   42.00372   39  668   73.00000   42.00000  42.5%   758 3145s
  1577   918   42.00000   40  631   73.00000   42.00000  42.5%   758 3151s
  1579   917   42.06468   41  649   73.00000   42.00000  42.5%   758 3156s
  1580   918   43.00000   42  624   73.00000   42.00000  42.5%   760 3162s
  1582   919   58.00000   43  530   73.00000   42.00000  42.5%   760 3170s
  1585   921   43.00000   45  608   73.00000   42.00000  42.5%   760 3176s
  1587   922   43.00000   46  565   73.00000   42.00000  42.5%   760 3180s
  1588   923   43.00000   46  551   73.00000   42.00000  42.5%   760 3185s
  1591   925   43.00000   48  527   73.00000   42.00000  42.5%   761 3192s
  1594   927   43.00000   49  507   73.00000   42.00000  42.5%   761 3196s
  1598   930   43.00000   51  525   73.00000   42.00000  42.5%   761 3201s
  1601   932   43.00000   53  523   73.00000   42.00000  42.5%   760 3206s
  1604   934   60.00000   54  498   73.00000   42.00000  42.5%   761 3212s
  1606   935   43.00000   55  512   73.00000   42.00000  42.5%   761 3215s
  1610   938   43.00000   57  522   73.00000   42.00000  42.5%   760 3220s
  1616   942   46.00000   60  457   73.00000   42.00000  42.5%   759 3225s
  1618   943   43.00000   61  510   73.00000   42.00000  42.5%   760 3230s
  1622   945   48.00000   63  538   73.00000   42.00000  42.5%   760 3236s
  1624   946   43.00000   64  478   73.00000   42.00000  42.5%   760 3240s
  1627   947   43.00000   66  522   73.00000   42.00000  42.5%   761 3245s
  1632   950   60.00000   68  452   73.00000   42.00000  42.5%   760 3251s
  1636   951   43.15535   70  479   73.00000   42.00000  42.5%   760 3255s
  1642   952   43.07243   73  510   73.00000   42.00000  42.5%   760 3260s
  1643   953   44.00000   74  522   73.00000   42.00000  42.5%   762 3265s
  1648   954   44.00000   77  521   73.00000   42.00000  42.5%   761 3270s
  1653   957   44.00000   79  532   73.00000   42.00000  42.5%   761 3276s
  1655   959   63.00000   80  535   73.00000   42.00000  42.5%   760 3280s
  1657   960   44.00000   81  513   73.00000   42.00000  42.5%   761 3285s
  1661   962   51.00000   83  478   73.00000   42.00000  42.5%   761 3291s
  1664   962   45.00000   85  542   73.00000   42.00000  42.5%   763 3296s
  1666   963   71.00000   86  476   73.00000   42.00000  42.5%   764 3303s
  1668   963   45.06513   87  464   73.00000   42.00000  42.5%   765 3306s
  1671   963   45.00000   89  496   73.00000   42.00000  42.5%   764 3310s
  1674   965   53.00000   90  455   73.00000   42.00000  42.5%   765 3315s
  1677   967   45.00000   92  476   73.00000   42.00000  42.5%   766 3320s
  1679   969   45.00000   93  497   73.00000   42.00000  42.5%   767 3325s
  1683   970   45.00000   95  492   73.00000   42.00000  42.5%   767 3330s
  1684   971   50.00000   95  455   73.00000   42.00000  42.5%   770 3337s
  1686   971   45.00000   96  496   73.00000   42.00000  42.5%   771 3340s
  1693   972   45.00000  100  484   73.00000   42.00000  42.5%   771 3345s
  1695   973   45.00000  101  487   73.00000   42.00000  42.5%   771 3350s
  1698   972   51.02000  102  480   73.00000   42.00000  42.5%   771 3355s
  1699   973   46.00000  103  464   73.00000   42.00000  42.5%   773 3360s
  1704   976   46.00000  106  474   73.00000   42.00000  42.5%   772 3365s
  1712   978   46.00000  110  450   73.00000   42.00000  42.5%   771 3370s
  1718   978   47.00000  113  461   73.00000   42.00000  42.5%   771 3375s
  1723   978   47.00000  116  464   73.00000   42.00000  42.5%   771 3380s
  1728   981   68.00000  118  392   73.00000   42.00000  42.5%   770 3385s
  1734   984   53.00000  121  412   73.00000   42.00000  42.5%   770 3391s
  1739   988   47.00000  124  450   73.00000   42.00000  42.5%   769 3395s
  1744   989   49.00000  126  382   73.00000   42.00000  42.5%   770 3400s
  1752   993   51.00000  130  422   73.00000   42.00000  42.5%   768 3406s
  1759   995   47.21936  134  405   73.00000   42.00000  42.5%   767 3410s
  1763   998   65.00000  136  454   73.00000   42.00000  42.5%   768 3416s
  1764   998   48.00000  137  452   73.00000   42.00000  42.5%   769 3420s
  1770  1001   48.41649  140  388   73.00000   42.00000  42.5%   769 3425s
  1777  1004   49.00000  144  408   73.00000   42.00000  42.5%   768 3430s
  1784  1006   49.00000  147  395   73.00000   42.00000  42.5%   768 3435s
  1791  1009   66.00000  151  323   73.00000   42.00000  42.5%   767 3440s
  1797  1012   49.00000  154  402   73.00000   42.00000  42.5%   767 3445s
  1803  1013   49.17879  157  374   73.00000   42.00000  42.5%   767 3450s
  1810  1015   50.00000  161  391   73.00000   42.00000  42.5%   766 3455s
  1815  1017   50.00000  163  394   73.00000   42.00000  42.5%   767 3460s
  1823  1019   51.88425  167  392   73.00000   42.00000  42.5%   766 3465s
  1833  1022   50.00000  172  431   73.00000   42.00000  42.5%   764 3470s
  1842  1024   51.00000  177  366   73.00000   42.00000  42.5%   763 3476s
  1849  1027   51.27268  181  359   73.00000   42.00000  42.5%   762 3480s
  1857  1031   52.01833  185  328   73.00000   42.00000  42.5%   761 3485s
  1863  1033   52.00000  188  345   73.00000   42.00000  42.5%   762 3491s
  1874  1039   52.00000  194  361   73.00000   42.00000  42.5%   760 3495s
  1882  1042   53.00000  198  345   73.00000   42.00000  42.5%   759 3500s
  1885  1042   54.85224  200  338   73.00000   42.00000  42.5%   759 3507s
  1891  1043   54.00000  203  358   73.00000   42.00000  42.5%   758 3510s
  1901  1047   69.00000  208  353   73.00000   42.00000  42.5%   756 3515s
  1908  1050   56.12503  212  286   73.00000   42.00000  42.5%   755 3520s
  1918  1055   72.00000  217  265   73.00000   42.00000  42.5%   754 3525s
  1926  1058   56.00000  222  309   73.00000   42.00000  42.5%   754 3530s
  1937  1061   57.00000  228  323   73.00000   42.00000  42.5%   752 3535s
  1945  1064   66.00000  232  370   73.00000   42.00000  42.5%   752 3540s
  1954  1068   62.00000  236  320   73.00000   42.00000  42.5%   751 3547s
  1961  1071   59.00000  240  334   73.00000   42.00000  42.5%   750 3550s
  1972  1073   60.00000  246  319   73.00000   42.00000  42.5%   748 3555s
  1983  1074   62.37818  252  262   73.00000   42.00000  42.5%   746 3560s
  1994  1078   61.00000  258  293   73.00000   42.00000  42.5%   744 3565s
  2002  1078   62.03060  262  258   73.00000   42.00000  42.5%   743 3570s
  2008  1080   72.00000  265  265   73.00000   42.00000  42.5%   742 3575s
  2018  1083   63.00000  271  344   73.00000   42.00000  42.5%   741 3580s
  2028  1082   64.00000  276  287   73.00000   42.00000  42.5%   740 3585s
  2038  1082   64.00000  281  315   73.00000   42.00000  42.5%   738 3590s
  2049  1083   70.73019  288  268   73.00000   42.00000  42.5%   737 3596s

Cutting planes:
  Gomory: 2
  Implied bound: 19
  Clique: 1
  MIR: 23
  Flow cover: 48
  Zero half: 8
  Mod-K: 6

Explored 2055 nodes (1542597 simplex iterations) in 3600.11 seconds
Thread count was 1 (of 12 available processors)

Solution count 6: 73 84 88 ... 11563
Pool objective bound 42

Time limit reached
Best objective 7.300000000000e+01, best bound 4.200000000000e+01, gap 42.4658%
